72 66580
12 53 14 23 21 35 60 31 18 34 29 65 7 38 2 10 56 27 3 43 50 49 22 52 47 67 70 24 6 16 46 1 33 26 61 28 25 20 13 59 32 63 9 39 30 4 36 66 37 55 44 68 17 8 11 41 69 71 57 42 72 64 62 45 5 58 19 15 40 51 48 54 
